
;this file is automatically generated: Thu Jan 02 16:54:47 GMT 2020

;declarations generated

(declare-fun oclExcludes ( Int Int) Bool)
(declare-fun type_e11fe318_1c82_4e41_9fb1_6cefe13f2873_Class29 ( Int) Bool)
(declare-fun Cardinality ( Int) Int)
(declare-fun obj_b3f64818_3e1d_4f5f_82a8_31d0ab724dde ( Int) Int)
(declare-fun class29_Class29BoolAttr1 ( Int) Bool)
(declare-fun oclSelect ( Int Bool) Int)
(declare-fun Enum0 ( Int) Int)
(declare-fun Enum1 ( Int) Int)
(declare-fun Enum2 ( Int) Int)
(declare-fun container_ ( Int) Int)
(declare-fun type_e11fe318_1c82_4e41_9fb1_6cefe13f2873_Class2 ( Int) Bool)
(declare-fun oclIncludes ( Int Int) Bool)
(declare-fun ObjAt ( Int Int) Int)

;formula(s) generated
(assert (! (forall ((v Int)) (=> (and ( type_e11fe318_1c82_4e41_9fb1_6cefe13f2873_Class29 v )  ( type_e11fe318_1c82_4e41_9fb1_6cefe13f2873_Class2 v ) ) (not ( class29_Class29BoolAttr1 ( obj_b3f64818_3e1d_4f5f_82a8_31d0ab724dde v )  )  ))):named l0))
(assert (exists ((o Int)) (and ( type_e11fe318_1c82_4e41_9fb1_6cefe13f2873_Class29 ( obj_b3f64818_3e1d_4f5f_82a8_31d0ab724dde o )  )  ( type_e11fe318_1c82_4e41_9fb1_6cefe13f2873_Class2 ( obj_b3f64818_3e1d_4f5f_82a8_31d0ab724dde o )  ) )))

 ;end of formula 